data/processed_heuristic-threshold/instances/1/8/ds_731_courier_487/pairwise.tsp
NAME: ds_731_courier_487
TYPE: TSP
COMMENT: nil
DIMENSION: 9
EDGE_WEIGHT_TYPE: EXPLICIT
EDGE_WEIGHT_FORMAT: FULL_MATRIX
EDGE_WEIGHT_SECTION
9999 4240 3438 3445 3137 3641 3783 2516 1324 
4240 9999 4166 4167 1596 1158 1949 4327 5079 
3438 4166 9999 7 4360 4517 5204 1057 2957 
3445 4167 7 9999 4363 4520 5208 1064 2964 
3137 1596 4360 4363 9999 550 849 4123 4247 
3641 1158 4517 4520 550 9999 844 4402 4700 
3783 1949 5204 5208 849 844 9999 4966 4974 
2516 4327 1057 1064 4123 4402 4966 9999 1902 
1324 5079 2957 2964 4247 4700 4974 1902 9999 
