data/processed_heuristic-threshold/instances/1/8/ds_731_courier_487/pairwise.sol
9
0 8 7 2 3 1 5 6 4 
